40
1 0 1
2 0 2
2 1 1
3 0 2
3 1 2
3 2 2
4 0 1
4 1 1
4 2 1
4 3 1
5 0 2
5 1 2
5 2 2
5 3 2
5 4 1
6 0 1
6 1 1
6 2 2
6 3 1
6 4 1
6 5 1
7 0 2
7 1 1
7 2 2
7 3 1
7 4 2
7 5 2
7 6 2
8 0 1
8 1 2
8 2 2
8 3 1
8 4 1
8 5 1
8 6 2
8 7 1
9 0 2
9 1 2
9 2 1
9 3 1
9 4 2
9 5 1
9 6 1
9 7 2
9 8 2
10 0 1
10 1 2
10 2 1
10 3 2
10 4 2
10 5 1
10 6 2
10 7 2
10 8 1
10 9 1
11 0 1
11 1 1
11 2 1
11 3 1
11 4 2
11 5 2
11 6 2
11 7 1
11 8 1
11 9 1
11 10 2
12 0 2
12 1 2
12 2 2
12 3 2
12 4 2
12 5 1
12 6 1
12 7 2
12 8 2
12 9 1
12 10 1
12 11 1
13 0 2
13 1 2
13 2 2
13 3 1
13 4 1
13 5 2
13 6 2
13 7 2
13 8 2
13 9 1
13 10 1
13 11 2
13 12 2
14 0 2
14 1 1
14 2 1
14 3 1
14 4 2
14 5 1
14 6 2
14 7 2
14 8 1
14 9 2
14 10 1
14 11 2
14 12 1
14 13 2
15 0 1
15 1 2
15 2 2
15 3 2
15 4 2
15 5 1
15 6 1
15 7 2
15 8 1
15 9 2
15 10 2
15 11 1
15 12 2
15 13 1
15 14 2
16 0 1
16 1 2
16 2 1
16 3 2
16 4 1
16 5 2
16 6 2
16 7 2
16 8 2
16 9 2
16 10 1
16 11 2
16 12 1
16 13 2
16 14 1
16 15 2
17 0 1
17 1 1
17 2 1
17 3 1
17 4 2
17 5 2
17 6 2
17 7 2
17 8 1
17 9 2
17 10 2
17 11 1
17 12 2
17 13 2
17 14 2
17 15 2
17 16 1
18 0 2
18 1 2
18 2 2
18 3 1
18 4 1
18 5 2
18 6 2
18 7 2
18 8 2
18 9 2
18 10 2
18 11 1
18 12 2
18 13 2
18 14 2
18 15 2
18 16 2
18 17 1
19 0 1
19 1 2
19 2 2
19 3 2
19 4 1
19 5 1
19 6 2
19 7 1
19 8 2
19 9 1
19 10 1
19 11 1
19 12 1
19 13 1
19 14 1
19 15 2
19 16 1
19 17 1
19 18 2
20 0 1
20 1 2
20 2 1
20 3 1
20 4 1
20 5 2
20 6 2
20 7 2
20 8 2
20 9 2
20 10 1
20 11 2
20 12 1
20 13 1
20 14 1
20 15 1
20 16 1
20 17 1
20 18 2
20 19 2
21 0 1
21 1 2
21 2 2
21 3 1
21 4 1
21 5 1
21 6 2
21 7 2
21 8 2
21 9 2
21 10 1
21 11 1
21 12 1
21 13 2
21 14 1
21 15 2
21 16 1
21 17 1
21 18 1
21 19 1
21 20 2
22 0 1
22 1 1
22 2 2
22 3 2
22 4 2
22 5 1
22 6 2
22 7 1
22 8 2
22 9 2
22 10 2
22 11 1
22 12 1
22 13 1
22 14 2
22 15 2
22 16 1
22 17 2
22 18 1
22 19 1
22 20 1
22 21 1
23 0 2
23 1 1
23 2 1
23 3 1
23 4 1
23 5 1
23 6 2
23 7 2
23 8 1
23 9 1
23 10 1
23 11 1
23 12 2
23 13 1
23 14 1
23 15 1
23 16 1
23 17 2
23 18 1
23 19 1
23 20 1
23 21 1
23 22 2
24 0 2
24 1 2
24 2 1
24 3 1
24 4 1
24 5 1
24 6 2
24 7 2
24 8 1
24 9 1
24 10 2
24 11 1
24 12 2
24 13 2
24 14 1
24 15 2
24 16 1
24 17 1
24 18 2
24 19 2
24 20 2
24 21 1
24 22 2
24 23 1
25 0 1
25 1 1
25 2 2
25 3 1
25 4 2
25 5 2
25 6 1
25 7 1
25 8 2
25 9 1
25 10 1
25 11 2
25 12 1
25 13 2
25 14 2
25 15 1
25 16 1
25 17 2
25 18 2
25 19 2
25 20 2
25 21 1
25 22 1
25 23 1
25 24 1
26 0 2
26 1 2
26 2 2
26 3 1
26 4 1
26 5 1
26 6 2
26 7 2
26 8 1
26 9 2
26 10 2
26 11 1
26 12 2
26 13 2
26 14 2
26 15 2
26 16 1
26 17 1
26 18 1
26 19 2
26 20 1
26 21 2
26 22 2
26 23 1
26 24 1
26 25 1
27 0 2
27 1 2
27 2 1
27 3 1
27 4 2
27 5 1
27 6 2
27 7 2
27 8 1
27 9 1
27 10 1
27 11 1
27 12 2
27 13 1
27 14 1
27 15 2
27 16 2
27 17 2
27 18 1
27 19 2
27 20 1
27 21 2
27 22 2
27 23 2
27 24 2
27 25 2
27 26 1
28 0 2
28 1 2
28 2 2
28 3 1
28 4 1
28 5 1
28 6 1
28 7 1
28 8 1
28 9 2
28 10 2
28 11 1
28 12 1
28 13 1
28 14 2
28 15 2
28 16 1
28 17 2
28 18 1
28 19 2
28 20 1
28 21 1
28 22 2
28 23 2
28 24 2
28 25 2
28 26 2
28 27 1
29 0 2
29 1 1
29 2 2
29 3 2
29 4 1
29 5 2
29 6 2
29 7 1
29 8 1
29 9 1
29 10 1
29 11 1
29 12 1
29 13 2
29 14 2
29 15 1
29 16 2
29 17 2
29 18 1
29 19 2
29 20 2
29 21 2
29 22 2
29 23 1
29 24 1
29 25 2
29 26 2
29 27 2
29 28 1
30 0 2
30 1 1
30 2 1
30 3 2
30 4 1
30 5 2
30 6 1
30 7 1
30 8 1
30 9 2
30 10 2
30 11 2
30 12 2
30 13 1
30 14 1
30 15 1
30 16 2
30 17 2
30 18 1
30 19 1
30 20 2
30 21 2
30 22 1
30 23 1
30 24 2
30 25 2
30 26 2
30 27 2
30 28 1
30 29 2
31 0 2
31 1 2
31 2 2
31 3 1
31 4 2
31 5 2
31 6 2
31 7 1
31 8 2
31 9 2
31 10 2
31 11 1
31 12 2
31 13 1
31 14 2
31 15 1
31 16 1
31 17 2
31 18 2
31 19 2
31 20 1
31 21 2
31 22 2
31 23 1
31 24 1
31 25 1
31 26 1
31 27 2
31 28 2
31 29 2
31 30 1
32 0 2
32 1 1
32 2 1
32 3 2
32 4 2
32 5 1
32 6 2
32 7 1
32 8 2
32 9 1
32 10 1
32 11 2
32 12 1
32 13 1
32 14 2
32 15 1
32 16 2
32 17 2
32 18 1
32 19 2
32 20 2
32 21 2
32 22 2
32 23 2
32 24 1
32 25 2
32 26 2
32 27 2
32 28 1
32 29 2
32 30 2
32 31 1
33 0 2
33 1 1
33 2 1
33 3 1
33 4 1
33 5 1
33 6 2
33 7 2
33 8 2
33 9 1
33 10 1
33 11 2
33 12 2
33 13 1
33 14 2
33 15 1
33 16 1
33 17 2
33 18 1
33 19 1
33 20 2
33 21 1
33 22 1
33 23 2
33 24 2
33 25 2
33 26 2
33 27 2
33 28 1
33 29 2
33 30 1
33 31 2
33 32 2
34 0 2
34 1 1
34 2 2
34 3 1
34 4 1
34 5 1
34 6 2
34 7 2
34 8 2
34 9 2
34 10 2
34 11 1
34 12 2
34 13 2
34 14 1
34 15 2
34 16 1
34 17 2
34 18 1
34 19 2
34 20 2
34 21 1
34 22 2
34 23 2
34 24 1
34 25 1
34 26 2
34 27 1
34 28 2
34 29 2
34 30 1
34 31 2
34 32 1
34 33 2
35 0 2
35 1 1
35 2 1
35 3 1
35 4 2
35 5 1
35 6 2
35 7 2
35 8 2
35 9 1
35 10 2
35 11 2
35 12 2
35 13 1
35 14 2
35 15 2
35 16 2
35 17 1
35 18 1
35 19 2
35 20 1
35 21 1
35 22 2
35 23 2
35 24 1
35 25 2
35 26 2
35 27 1
35 28 1
35 29 2
35 30 2
35 31 2
35 32 2
35 33 2
35 34 2
36 0 1
36 1 2
36 2 2
36 3 1
36 4 1
36 5 1
36 6 2
36 7 2
36 8 1
36 9 2
36 10 1
36 11 1
36 12 1
36 13 1
36 14 1
36 15 1
36 16 2
36 17 2
36 18 1
36 19 1
36 20 2
36 21 2
36 22 1
36 23 1
36 24 1
36 25 2
36 26 2
36 27 1
36 28 2
36 29 2
36 30 1
36 31 2
36 32 2
36 33 1
36 34 2
36 35 2
37 0 2
37 1 1
37 2 2
37 3 1
37 4 1
37 5 2
37 6 1
37 7 2
37 8 1
37 9 1
37 10 2
37 11 1
37 12 1
37 13 1
37 14 1
37 15 1
37 16 1
37 17 2
37 18 1
37 19 2
37 20 2
37 21 1
37 22 2
37 23 1
37 24 1
37 25 2
37 26 2
37 27 2
37 28 2
37 29 2
37 30 1
37 31 2
37 32 1
37 33 2
37 34 2
37 35 1
37 36 1
38 0 1
38 1 1
38 2 1
38 3 2
38 4 2
38 5 2
38 6 1
38 7 2
38 8 2
38 9 1
38 10 1
38 11 1
38 12 2
38 13 2
38 14 1
38 15 2
38 16 1
38 17 1
38 18 2
38 19 2
38 20 1
38 21 2
38 22 1
38 23 2
38 24 1
38 25 2
38 26 2
38 27 2
38 28 1
38 29 1
38 30 1
38 31 2
38 32 1
38 33 1
38 34 2
38 35 1
38 36 1
38 37 2
39 0 2
39 1 2
39 2 1
39 3 1
39 4 2
39 5 2
39 6 2
39 7 2
39 8 1
39 9 1
39 10 1
39 11 1
39 12 1
39 13 1
39 14 1
39 15 2
39 16 2
39 17 2
39 18 2
39 19 2
39 20 1
39 21 1
39 22 2
39 23 2
39 24 1
39 25 2
39 26 1
39 27 2
39 28 2
39 29 2
39 30 2
39 31 2
39 32 1
39 33 1
39 34 2
39 35 2
39 36 2
39 37 1
39 38 2
